240984.49,19.24,21.08
225635.37,20.55,22.51
248736.75,18.64,20.42
240093.16,19.32,21.16
233367.32,19.87,21.77
231152.25,20.06,21.97
237091.27,19.56,21.42
240191.29,19.31,21.15
239028.67,19.4,21.25
227458.79,20.39,22.33
229371.94,20.22,22.15
238209.81,19.47,21.32
239530.35,19.36,21.21
233799.09,19.84,21.73
229151.75,20.24,22.17
237963.95,19.49,21.35
223378.46,20.76,22.74
244762.81,18.95,20.75
240669.05,19.27,21.11
242775.33,19.1,20.92
